Version identifier: 12.10.0.0 | 2019-11-26 | 843d4de
CPXPARAM_WorkMem                                 28672
Tried aggregator 2 times.
Aggregator did 40 substitutions.
Reduced MIP has 184 rows, 240 columns, and 888 nonzeros.
Reduced MIP has 240 binaries, 0 generals, 0 SOSs, and 0 indicators.
Presolve time = 0,00 sec. (0,83 ticks)
Found incumbent of value 160,000000 after 0,00 sec. (1,45 ticks)
Probing time = 0,00 sec. (0,28 ticks)
Tried aggregator 1 time.
Detecting symmetries...
MIP Presolve eliminated 32 rows and 0 columns.
MIP Presolve added 64 rows and 0 columns.
Reduced MIP has 216 rows, 240 columns, and 920 nonzeros.
Reduced MIP has 240 binaries, 0 generals, 0 SOSs, and 0 indicators.
Presolve time = 0,00 sec. (1,06 ticks)
Probing time = 0,00 sec. (0,28 ticks)
Clique table members: 588.
MIP emphasis: balance optimality and feasibility.
MIP search method: dynamic search.
Parallel mode: deterministic, using up to 16 threads.
Root relaxation solution time = 0,00 sec. (0,67 ticks)

        Nodes                                         Cuts/
   Node  Left     Objective  IInf  Best Integer    Best Bound    ItCnt     Gap

*     0+    0                          160,0000        0,0000           100,00%
*     0+    0                           96,0000        0,0000           100,00%
*     0+    0                           88,0000        0,0000           100,00%
      0     0       40,0000   110       88,0000       40,0000       83   54,55%
      0     0       40,0000   110       88,0000     Cuts: 102      117   54,55%
      0     0       40,0000   110       88,0000     Cuts: 154      199   54,55%
      0     0       40,0000   110       88,0000     Cuts: 130      285   54,55%
*     0+    0                           85,0000       40,0000            52,94%
*     0+    0                           84,0000       40,0000            52,38%
*     0+    0                           80,0000       40,0000            50,00%
      0     2       40,0000   139       80,0000       40,0000      285   50,00%
Elapsed time = 0,07 sec. (29,76 ticks, tree = 0,02 MB, solutions = 6)
*  1171+  640                           78,0000       44,1982            43,34%

Performing restart 1

Repeating presolve.
Tried aggregator 1 time.
Reduced MIP has 216 rows, 240 columns, and 920 nonzeros.
Reduced MIP has 240 binaries, 0 generals, 0 SOSs, and 0 indicators.
Presolve time = 0,00 sec. (0,53 ticks)
Tried aggregator 1 time.
Reduced MIP has 216 rows, 240 columns, and 920 nonzeros.
Reduced MIP has 240 binaries, 0 generals, 0 SOSs, and 0 indicators.
Presolve time = 0,00 sec. (0,74 ticks)
Represolve time = 0,01 sec. (3,94 ticks)
   4867     0       40,2917   240       78,0000      Cuts: 10    87835   28,35%
   4867     0       40,8668   240       78,0000       Cuts: 5    87884   28,35%
   4867     0       41,2208   240       78,0000       Cuts: 9    87922   28,35%
   4867     0       41,5435   240       78,0000       Cuts: 7    87967   28,35%
   4867     2       41,5435   240       78,0000       55,8883    87967   28,35%
   6606  1121       74,2056   120       78,0000       55,8883   126875   28,35%
  10615  4556       62,1922   193       78,0000       55,8883   208050   28,35%

Performing restart 2

Repeating presolve.
Tried aggregator 1 time.
Reduced MIP has 216 rows, 240 columns, and 920 nonzeros.
Reduced MIP has 240 binaries, 0 generals, 0 SOSs, and 0 indicators.
Presolve time = 0,00 sec. (0,53 ticks)
Tried aggregator 1 time.
Reduced MIP has 216 rows, 240 columns, and 920 nonzeros.
Reduced MIP has 240 binaries, 0 generals, 0 SOSs, and 0 indicators.
Presolve time = 0,00 sec. (0,74 ticks)
Represolve time = 0,02 sec. (13,62 ticks)
  11300     0       41,6315   240       78,0000       Cuts: 5   233354   28,35%
  11300     0       41,8335   240       78,0000       Cuts: 6   233398   28,35%
  11300     0       42,1321   240       78,0000      Cuts: 11   233451   28,35%
  11300     0       42,5474   240       78,0000      Cuts: 10   233533   28,35%
  11300     0       42,7177   240       78,0000      Fract: 3   233572   28,35%
  11300     0       42,9245   240       78,0000      Cuts: 10   233638   28,35%
* 11300+    0                           77,0000       55,8883            27,42%
  11300     2       42,9245   240       77,0000       55,8883   233638   27,42%
  14396  1725       73,5405   117       77,0000       64,4131   324943   16,35%
  17717  2286       75,8333    80       77,0000       70,6203   454276    8,29%

Clique cuts applied:  66
Cover cuts applied:  376
Mixed integer rounding cuts applied:  9
Zero-half cuts applied:  15
Gomory fractional cuts applied:  26

Root node processing (before b&c):
  Real time             =    0,06 sec. (29,67 ticks)
Parallel b&c, 16 threads:
  Real time             =    2,44 sec. (1673,56 ticks)
  Sync time (average)   =    0,69 sec.
  Wait time (average)   =    0,01 sec.
                          ------------
Total (root+branch&cut) =    2,50 sec. (1703,23 ticks)
